1966.0
[[11.  4. 14.  5. 18. 12.  8. 13. 17. 16. 19.  0. 10.  7.  2. 15.  1.  9.
   3.  6.]
 [11.  4. 14.  5. 18. 12.  8. 13. 17. 16. 19.  0. 10.  7.  2. 15.  1.  9.
   3.  6.]
 [11.  4. 14.  5. 18. 12.  8. 13. 17. 16. 19.  0. 10.  7.  2. 15.  1.  9.
   3.  6.]
 [11.  4. 14.  5. 18. 12.  8. 13. 17. 16. 19.  0. 10.  7.  2. 15.  1.  9.
   3.  6.]
 [11.  4. 14.  5. 18. 12.  8. 13. 17. 16. 19.  0. 10.  7.  2. 15.  1.  9.
   3.  6.]
 [11.  4. 14.  5. 18. 12.  8. 13. 17. 16. 19.  0. 10.  7.  2. 15.  1.  9.
   3.  6.]
 [11.  4. 14.  5. 18. 12.  8. 13. 17. 16. 19.  0. 10.  7.  2. 15.  1.  9.
   3.  6.]
 [11.  4. 14.  5. 18. 12.  8. 13. 17. 16. 19.  0. 10.  7.  2. 15.  1.  9.
   3.  6.]
 [11.  4. 14.  5. 18. 12.  8. 13. 17. 16. 19.  0. 10.  7.  2. 15.  1.  9.
   3.  6.]
 [11.  4. 14.  5. 18. 12.  8. 13. 17. 16. 19.  0. 10.  7.  2. 15.  1.  9.
   3.  6.]
 [11.  4. 14.  5. 18. 12.  8. 13. 17. 16. 19.  0. 10.  7.  2. 15.  1.  9.
   3.  6.]
 [11.  4. 14.  5. 18. 12.  8. 13. 17. 16. 19.  0. 10.  7.  2. 15.  1.  9.
   3.  6.]
 [11.  4. 14.  5. 18. 12.  8. 13. 17. 16. 19.  0. 10.  7.  2. 15.  1.  9.
   3.  6.]
 [11.  4. 14.  5. 18. 12.  8. 13. 17. 16. 19.  0. 10.  7.  2. 15.  1.  9.
   3.  6.]
 [11.  4. 14.  5. 18. 12.  8. 13. 17. 16. 19.  0. 10.  7.  2. 15.  1.  9.
   3.  6.]]
